c ---- [ banner ] ------------------------------------------------------------
c
c Kissat SAT Solver
c 
c Copyright (c) 2021-2023 Armin Biere University of Freiburg
c Copyright (c) 2019-2021 Armin Biere Johannes Kepler University Linz
c 
c Version 3.1.1 unknown
c gcc (Ubuntu 9.4.0-1ubuntu1~20.04.2) 9.4.0 -W -Wall -O3 -DNDEBUG
c Mon Feb 26 18:18:52 CET 2024 Linux OptiPlex-7080 5.15.0-88-generic x86_64
c
c ---- [ parsing ] -----------------------------------------------------------
c
c opened and reading DIMACS file:
c
c   /home/oliveras/SAT-comp-2023//45faf223af97fe9177daa3ad4002cf2f-hash_table_find_safety_size_25.cnf
c
c parsed 'p cnf 16012436 73097259' header
c closing input after reading 1837817262 bytes (2 GB)
c finished parsing after 21.93 seconds
c
c ---- [ options ] -----------------------------------------------------------
c
c --seed=1                         (different from default '0')
c
c ---- [ solving ] -----------------------------------------------------------
c
c  seconds   switched conflicts       irredundant    variables
c           MB reductions redundant            trail        remaining
c            level restarts      binary           glue
c
c * 21.93 4139 0 0 0  0   0   0 9516582 54942123 0% 0 14567284 91%
c { 21.93 4139 0 0 0  0   0   0 9516582 54942123 0% 0 14567284 91%
c i 22.21 4140 1310 0 0  0 544  32 9516585 54942123 1% 494 14567283 91%
c - 23.10 4141 1219 0 1  0 1205  29 8976698 54942123 1% 507 14567283 91%
c } 23.10 4141 1219 1 1  0 1205  29 8976698 54942123 1% 507 14567283 91%
c [ 23.10 4141 0 1 1  0 1205  29 8976698 54942123 0% 0 14567283 91%
c B 23.77 4196 0 1 1  0 1205  29 8976698 54942123 0% 0 14567283 91%
c ] 24.35 4215 14 2 1  0 1206  30 8976698 54942123 0% 3 14567283 91%
c { 24.35 4215 1219 2 1  0 1206  30 8976698 54942123 1% 507 14567283 91%
c - 25.98 4274 1265 2 2  0 2588 1352 8976707 54942123 1% 26 14567283 91%
c } 25.98 4274 1265 3 2  0 2588 1352 8976707 54942123 1% 26 14567283 91%
c [ 25.98 4274 14 3 2  0 2588 1352 8976707 54942123 0% 3 14567283 91%
c W 46.69 4843 14 3 2  0 2588 1352 8976707 54818223 0% 3 14567283 91%
c i 47.29 4851 493 3 2  0 2641 1399 8976709 54818223 1% 15 14567282 91%
c ] 47.71 4855 663 4 2  0 2942 1407 8976709 54818223 1% 33 14567282 91%
c { 47.71 4855 1265 4 2  0 2942 1407 8976709 54818223 1% 26 14567282 91%
c i 56.06 4907 1242 4 2  4 5282 1517 8978661 54818223 1% 14 14567280 91%
c - 57.58 4907 1242 4 3  4 5282 1480 8978655 54818223 1% 14 14567280 91%
c } 58.81 4913 1252 5 3  4 5294 1489 8978655 54818223 1% 14 14567280 91%
c [ 58.81 4913 663 5 3  4 5294 1489 8978655 54818223 1% 33 14567280 91%
c
c  seconds     switched conflicts         irredundant     variables
c           MB  reductions  redundant              trail         remaining
c             level restarts         binary            glue
c
c I 58.85 4913 663 5 3  4 5294 1489 8978655 54818223 1% 33 14567280 91%
c i 59.13 4913 706 5 3  4 5320 1496 8978664 54818223 1% 24 14567274 91%
c i 59.42 4914 786 5 3  4 5351 1525 8978664 54818223 1% 205 14567272 91%
c ] 69.69 4937 889 6 3  4 5402 1574 8978664 54818223 2% 323 14567272 91%
c { 69.69 4937 1252 6 3  4 5402 1574 8978664 54818223 1% 14 14567272 91%
c i 72.26 4940 1253 6 3  5 5407 1577 8978664 54818223 1% 14 14513426 91%
c i 72.75 4940 1253 6 3 11 5413 1579 8978667 54818223 1% 14 14513425 91%
c i 73.00 4942 1251 6 3 18 5421 1585 8978668 54818223 1% 14 14513424 91%
c i 73.12 4942 1249 6 3 24 5428 1590 8978669 54818223 1% 14 14449740 90%
c i 73.14 4942 1249 6 3 26 5430 1591 8978669 54818223 1% 14 14449736 90%
c i 79.28 4942 1246 6 3 33 5442 1597 8978670 54818223 1% 14 14449735 90%
c d 115.39 4987 1197 6 3 39 6099 647 10287252 52049036 7% 13 14350789 90%
c u 124.03 5214 1197 6 3 39 6099 645 10287254 52049036 7% 13 14350789 90%
c v 129.76 5218 1197 6 3 39 6099 645 10287254 52049036 7% 13 14350789 90%
c = 166.66 5570 1197 6 3 39 6099 645 10418310 52049036 7% 13 14285261 89%
c d 171.18 5575 1197 6 3 39 6099 645 9111550 52043816 7% 13 13722749 86%
c t 175.67 6265 1197 6 3 39 6099 645 9111082 52043816 7% 13 13722747 86%
c i 176.31 6265 1197 6 3 39 6100 645 9111082 52043816 7% 13 13722746 86%
c i 176.31 6265 1198 6 3 39 6101 645 9111082 52043816 7% 13 13722745 86%
c i 176.32 6265 1199 6 3 39 6103 645 9111083 52043815 7% 13 13722742 86%
c
c  seconds       switched conflicts        irredundant     variables
c            MB   reductions  redundant             trail         remaining
c              level  restarts        binary            glue
c
c i 176.70 6265 1201 6 3 39 6106 646 9111084 52043814 7% 13 13722740 86%
c i 192.57 6270 1231 6 3 39 6152 667 9111096 52043813 7% 13 13722738 86%
c i 192.57 6270 1231 6 3 39 6154 667 9111097 52043812 7% 13 13722737 86%
c i 192.61 6270 1231 6 3 39 6156 668 9111097 52043812 7% 13 13722736 86%
c i 193.89 6270 1230 6 3 39 6158 669 9111097 52043812 7% 13 13722735 86%
c i 193.89 6270 1230 6 3 39 6160 669 9111097 52043812 7% 13 13722734 86%
c i 259.84 6308 1151 6 3 81 6773 1150 9111137 52043812 8% 13 13722733 86%
c i 259.91 6308 1152 6 3 81 6775 1150 9111138 52043812 8% 13 13722732 86%
c i 261.94 6310 1152 6 3 81 6777 1150 9111139 52043811 8% 13 13722729 86%
c i 262.20 6310 1153 6 3 81 6778 1150 9111139 52043811 8% 13 13722728 86%
c i 262.36 6310 1154 6 3 81 6779 1150 9111139 52043811 8% 13 13722727 86%
c i 268.05 6316 1155 6 3 81 6910 1248 9111145 52043811 8% 13 13722725 86%
c i 268.05 6316 1155 6 3 81 6914 1251 9111145 52043811 8% 13 13722724 86%
c i 285.31 6318 1146 6 3 82 6971 1305 9111146 52043811 8% 13 13722723 86%
c i 286.54 6318 1146 6 3 82 6973 1305 9111147 52043811 8% 13 13722722 86%
c - 298.35 6143 1140 6 4 82 7019 946 8746339 52041672 8% 13 13722722 86%
c i 303.08 6143 1137 6 4 82 7037 960 8746340 52041672 8% 13 13722721 86%
c i 305.01 6143 1137 6 4 82 7040 960 8746342 52041672 8% 13 13722720 86%
c i 307.31 6144 1134 6 4 82 7059 970 8746346 52041671 8% 13 13722719 86%
c i 308.81 6144 1133 6 4 82 7064 973 8746347 52041671 8% 12 13722711 86%
c
c  seconds       switched conflicts        irredundant     variables
c            MB   reductions  redundant             trail         remaining
c              level  restarts        binary            glue
c
c i 314.49 6144 1131 6 4 82 7075 982 8746348 52041671 8% 12 13722710 86%
c i 314.53 6144 1131 6 4 82 7079 983 8746350 52041671 8% 12 13722709 86%
c i 314.53 6144 1130 6 4 82 7080 983 8746350 52041671 8% 12 13722682 86%
c i 316.42 6144 1129 6 4 82 7088 986 8746350 52041671 8% 12 13722681 86%
c i 318.31 6144 1128 6 4 82 7098 992 8746353 52041671 8% 12 13722680 86%
c i 320.16 6145 1118 6 4 85 7230 1058 8746355 52041671 9% 13 13722679 86%
c i 321.61 6145 1118 6 4 87 7232 1059 8746355 52041671 9% 13 13722678 86%
c i 323.01 6145 1117 6 4 88 7233 1059 8746355 52041671 9% 13 13722677 86%
c i 326.56 6145 1117 6 4 90 7236 1061 8746355 52041671 9% 13 13722676 86%
c i 328.10 6145 1117 6 4 91 7237 1061 8746355 52041671 9% 13 13722675 86%
c i 328.33 6147 1117 6 4 91 7238 1061 8746355 52041671 9% 13 13722674 86%
c i 330.20 6147 1117 6 4 92 7239 1061 8746355 52041671 9% 13 13722673 86%
c i 337.34 6152 1097 6 4 93 7426 1182 8746405 52041668 10% 12 13722667 86%
c i 337.81 6153 1097 6 4 93 7427 1182 8746405 52041668 10% 12 13722666 86%
c i 338.31 6153 1098 6 4 93 7429 1182 8746406 52041668 10% 12 13722665 86%
c i 339.60 6154 1107 6 4 93 7442 1189 8746408 52041668 10% 12 13722664 86%
c i 340.29 6154 1111 6 4 93 7456 1199 8746409 52041667 10% 12 13722660 86%
c i 344.80 6155 1111 6 4 93 7468 1206 8746413 52041667 10% 12 13722659 86%
c i 345.10 6155 1112 6 4 93 7474 1209 8746415 52041667 10% 12 13722650 86%
c i 361.23 6157 1083 6 4 98 7765 1359 8746417 52041667 11% 12 13722649 86%
c
c  seconds       switched conflicts         irredundant      variables
c            MB   reductions  redundant               trail         remaining
c              level  restarts         binary             glue
c
c i 361.27 6157 1083 6 4 98 7767 1359 8746418 52041667 11% 12 13722648 86%
c i 363.69 6157 1082 6 4 98 7776 1364 8746421 52041667 11% 12 13722646 86%
c i 365.25 6157 1081 6 4 98 7780 1366 8746422 52041666 11% 12 13722641 86%
c i 382.82 6175 1056 6 4 99 8043 1473 8746425 52041665 13% 12 13722629 86%
c i 385.03 6176 1059 6 4 103 8052 1477 8746427 52041664 13% 12 13722624 86%
c i 385.05 6176 1059 6 4 104 8054 1477 8746428 52041663 13% 12 13722621 86%
c i 385.13 6176 1059 6 4 104 8056 1477 8746429 52041663 13% 12 13722620 86%
c i 385.14 6176 1059 6 4 104 8059 1477 8746431 52041661 13% 12 13722619 86%
c i 385.16 6176 1062 6 4 104 8069 1477 8746438 52041661 13% 12 13722618 86%
c i 387.14 6176 1061 6 4 104 8072 1477 8746440 52041661 13% 12 13722617 86%
c i 392.53 6176 1059 6 4 105 8104 1493 8746444 52041661 13% 12 13722616 86%
c i 394.09 6176 1058 6 4 105 8111 1496 8746445 52041661 13% 12 13722615 86%
c i 395.50 6176 1058 6 4 105 8115 1498 8746446 52041661 13% 12 13722614 86%
c i 395.58 6176 1057 6 4 105 8131 1501 8746458 52041661 13% 12 13722613 86%
c i 395.59 6176 1057 6 4 105 8132 1501 8746458 52041661 13% 12 13722612 86%
c i 395.60 6176 1057 6 4 105 8133 1501 8746458 52041661 13% 12 13722611 86%
c i 395.61 6176 1057 6 4 105 8134 1501 8746458 52041661 13% 12 13722610 86%
c i 402.96 6176 1054 6 4 107 8160 1525 8746459 52041661 13% 12 13722609 86%
c i 404.72 6176 1054 6 4 107 8161 1525 8746459 52041661 13% 12 13722608 86%
c i 429.14 6178 1043 6 4 117 8295 1629 8746468 52041661 14% 12 13722606 86%
c
c  seconds       switched conflicts          irredundant      variables
c            MB   reductions   redundant               trail         remaining
c              level  restarts          binary             glue
c
c i 429.43 6178 1043 6 4 117 8301 1634 8746468 52041661 14% 12 13722605 86%
c i 431.19 6178 1042 6 4 117 8303 1635 8746468 52041661 14% 12 13722604 86%
c i 435.52 6179 1024 6 4 117 8503 1666 8746526 52041661 14% 12 13722603 86%
c i 435.62 6179 1024 6 4 117 8506 1668 8746526 52041661 14% 12 13722602 86%
c i 439.95 6179 1016 6 4 117 8577 1680 8746584 52041661 15% 12 13722601 86%
c i 441.48 6179 1015 6 4 117 8579 1680 8746585 52041660 15% 12 13722596 86%
c i 443.87 6179 1013 6 4 117 8598 1695 8746588 52041660 15% 12 13722566 86%
c i 445.31 6179 1013 6 4 117 8599 1695 8746588 52041660 15% 12 13722565 86%
c i 460.90 6180 1002 6 4 118 8698 1743 8746592 52041659 15% 12 13722562 86%
c i 460.91 6180 1003 6 4 119 8701 1743 8746594 52041658 15% 12 13722560 86%
c i 460.92 6180 1003 6 4 120 8703 1743 8746595 52041657 15% 12 13722555 86%
c i 460.94 6180 1003 6 4 120 8705 1743 8746596 52041657 15% 12 13722554 86%
c i 460.94 6180 1003 6 4 120 8706 1743 8746596 52041657 15% 12 13722553 86%
c i 460.94 6180 1003 6 4 120 8707 1743 8746596 52041657 15% 12 13722552 86%
c i 460.94 6180 1004 6 4 120 8708 1743 8746596 52041657 15% 12 13722550 86%
c i 460.94 6180 1004 6 4 120 8709 1743 8746596 52041657 15% 12 13722548 86%
c i 462.71 6180 1008 6 4 120 8716 1747 8746598 52041657 15% 12 13722546 86%
c i 462.74 6180 1007 6 4 120 8719 1747 8746599 52041657 15% 12 13722545 86%
c i 465.80 6199 1007 6 4 120 8720 1747 8746599 52041657 15% 12 8839158 55%
c i 465.80 6199 1007 6 4 120 8721 1747 8746599 52041657 15% 12 8839157 55%
c
c  seconds       switched conflicts          irredundant      variables
c            MB   reductions   redundant               trail        remaining
c              level  restarts          binary             glue
c
c i 465.89 6199 1007 6 4 120 8722 1747 8746599 52041657 15% 12 8839156 55%
c i 469.20 6199 1005 6 4 120 8749 1773 8746599 52041657 15% 12 8836482 55%
c i 485.08 6201 998 6 4 120 8882 1833 8746599 52041657 16% 12 8836481 55%
c i 486.77 6201 996 6 4 120 8918 1841 8746607 52041657 16% 12 8836480 55%
c - 502.24 5785 992 6 5 120 9020 1185 10861041 26419518 16% 12 8812354 55%
c i 511.94 3286 991 6 5 120 9023 1187 10861041 26419518 16% 12 8812353 55%
c i 518.18 3422 988 6 5 125 9063 1206 10861041 26419518 16% 12 8812352 55%
c i 519.10 3427 986 6 5 126 9077 1218 10861041 26419518 16% 12 8812351 55%
c i 519.10 3427 986 6 5 126 9078 1218 10861041 26419518 16% 12 8812350 55%
c i 519.26 3427 986 6 5 128 9081 1219 10861042 26419518 16% 12 8812349 55%
c i 519.26 3427 986 6 5 128 9082 1219 10861042 26419518 16% 12 8812348 55%
c i 519.43 3427 985 6 5 129 9091 1222 10861047 26419518 16% 12 8812347 55%
c i 519.43 3427 985 6 5 129 9092 1222 10861047 26419518 16% 12 8812346 55%
c i 519.45 3427 984 6 5 129 9094 1223 10861047 26419518 16% 12 8812345 55%
c i 524.01 3457 978 6 5 129 9191 1296 10861053 26419518 16% 12 8812344 55%
c i 524.03 3458 978 6 5 129 9192 1296 10861053 26419518 16% 12 8812343 55%
c i 524.05 3458 978 6 5 129 9193 1296 10861053 26419518 16% 12 8812342 55%
c i 524.07 3458 978 6 5 129 9194 1296 10861053 26419518 16% 12 8812341 55%
c i 524.09 3458 978 6 5 129 9195 1296 10861053 26419518 16% 12 8812340 55%
c i 524.13 3458 978 6 5 129 9196 1296 10861053 26419518 16% 12 8780933 55%
c
c  seconds      switched conflicts           irredundant      variables
c            MB  reductions   redundant                trail        remaining
c              level restarts           binary             glue
c
c i 524.17 3458 977 6 5 129 9203 1298 10861057 26419517 16% 11 8780683 55%
c i 524.22 3458 977 6 5 129 9204 1298 10861057 26419517 16% 11 8684243 54%
c i 524.33 3458 976 6 5 129 9210 1301 10861059 26419517 16% 11 8684238 54%
c i 524.36 3458 976 6 5 129 9213 1303 10861059 26419517 16% 11 8684237 54%
c i 530.02 3460 971 6 5 129 9258 1347 10861059 26419517 16% 11 8684236 54%
c i 533.78 3504 960 6 5 130 9455 1378 10861113 26419517 16% 11 8684230 54%
c i 533.87 3505 961 6 5 130 9459 1378 10861116 26419517 16% 11 8684132 54%
c i 533.94 3506 962 6 5 130 9468 1380 10861118 26419516 16% 11 8684023 54%
c i 533.95 3506 962 6 5 130 9469 1380 10861118 26419516 16% 11 8677897 54%
c } 533.96 3506 962 7 5 130 9475 1381 10861120 26419516 16% 11 8677671 54%
c [ 533.96 3506 889 7 5 130 9475 1381 10861120 26419516 2% 323 8677671 54%
c B 534.00 3506 889 7 5 130 9475 1381 10861120 26419516 2% 323 8677671 54%
c i 534.03 3506 889 7 5 130 9477 1381 10861120 26419516 2% 319 8677654 54%
c i 534.13 3506 891 7 5 130 9482 1384 10861121 26419516 2% 328 8677653 54%
c i 534.32 3508 892 7 5 130 9483 1384 10861121 26419516 2% 326 8677620 54%
c - 573.70 3575 1319 7 6 130 11257 1570 10637038 26419516 24% 74 8677612 54%
c i 592.49 3585 1138 7 6 131 11990 1842 10637130 26419516 23% 57 8677611 54%
c i 592.49 3585 1138 7 6 131 11993 1844 10637130 26419516 23% 57 8677610 54%
c i 592.49 3585 1138 7 6 131 11996 1846 10637130 26419516 23% 57 8677609 54%
c i 592.49 3585 1138 7 6 131 12000 1848 10637130 26419516 23% 57 8677608 54%
c
c  seconds       switched  conflicts           irredundant      variables
c            MB   reductions    redundant                trail        remaining
c              level  restarts            binary             glue
c
c i 592.54 3585 1138 7 6 131 12003 1850 10637130 26419516 23% 57 8677607 54%
c i 592.58 3585 1137 7 6 131 12008 1854 10637130 26419516 23% 57 8677606 54%
c i 602.11 3587 1106 7 6 131 12093 1927 10637134 26419516 22% 54 8677605 54%
c i 602.11 3587 1105 7 6 131 12095 1927 10637135 26419516 22% 54 8677604 54%
c i 602.11 3587 1102 7 6 131 12103 1928 10637137 26419516 22% 54 8677602 54%
c i 602.14 3587 1101 7 6 131 12108 1932 10637137 26419516 22% 54 8677600 54%
c i 602.14 3587 1100 7 6 131 12111 1932 10637137 26419516 22% 54 8677598 54%
c i 602.15 3587 1098 7 6 131 12116 1935 10637138 26419516 22% 54 8677596 54%
c i 604.86 3587 1081 7 6 131 12160 1975 10637138 26419516 22% 53 8677595 54%
c i 604.88 3587 1080 7 6 131 12163 1977 10637138 26419516 22% 53 8677594 54%
c d 608.27 3590 1080 7 6 131 12163 1969 8099826 25426416 22% 53 7207629 45%
c b 610.67 3634 1080 7 6 131 12163 1969 8099826 25426416 22% 53 7000826 44%
c u 619.53 3638 1080 7 6 131 12163 1899 8099875 25426416 22% 53 6998988 44%
c v 634.97 3642 1080 7 6 131 12163 1860 8099898 25426416 22% 53 6998988 44%
c w 656.01 3788 1080 7 6 131 12163 1920 8713083 24004738 22% 53 6998943 44%
c = 676.09 3791 1080 7 6 131 12163 1920 8728482 23984417 22% 53 6991192 44%
c d 678.50 3791 1080 7 6 131 12163 1906 7976105 23982817 22% 53 6624890 41%
c d 679.92 3791 1080 7 6 131 12163 1906 7974595 23982817 22% 53 6624135 41%
c t 683.28 3794 1080 7 6 131 12163 1906 7973893 23982817 22% 53 6624092 41%
c b 684.20 3794 1080 7 6 131 12163 1906 7973893 23982817 22% 53 6622889 41%
c
c  seconds       switched  conflicts          irredundant      variables
c            MB   reductions    redundant               trail        remaining
c              level  restarts           binary             glue
c
c i 684.20 3794 1080 7 6 131 12163 1906 7973893 23982817 22% 53 6622889 41%
c i 684.44 3794 1079 7 6 131 12166 1907 7973894 23982817 22% 53 6622888 41%
c i 684.61 3794 1075 7 6 131 12179 1914 7973894 23982817 22% 52 6622884 41%
c i 686.30 3795 1062 7 6 131 12216 1946 7973895 23982815 22% 51 6622883 41%
c i 686.54 3795 1061 7 6 131 12220 1948 7973895 23982815 22% 51 6622880 41%
c - 710.65 3569 800 7 7 132 13708 2140 7525954 23958447 18% 42 6622880 41%
c W 723.33 3571 683 7 7 132 15006 2540 7526050 23958447 16% 36 6622880 41%
c i 769.12 3586 635 7 7 132 16088 3347 7526096 23958447 16% 34 6622879 41%
c i 769.22 3586 635 7 7 132 16089 3347 7526096 23958447 16% 34 6622878 41%
c i 769.33 3586 635 7 7 132 16090 3347 7526096 23958447 16% 34 6622877 41%
c i 769.44 3586 635 7 7 132 16091 3347 7526096 23958447 16% 34 6622876 41%
c i 769.54 3586 635 7 7 132 16092 3347 7526096 23958447 16% 34 6622875 41%
c i 778.25 3586 624 7 7 132 16274 3514 7526108 23958447 16% 36 6622874 41%
c - 781.85 3586 619 7 8 132 16353 2898 7526101 23958447 16% 36 6622874 41%
c i 845.76 3587 548 7 8 133 17558 3772 7526178 23958447 15% 31 6622873 41%
c i 845.76 3587 548 7 8 133 17559 3772 7526178 23958447 15% 31 6622872 41%
c i 845.76 3587 548 7 8 133 17560 3772 7526178 23958447 15% 31 6622871 41%
c i 845.76 3587 548 7 8 133 17561 3772 7526178 23958447 15% 31 6622870 41%
c i 845.76 3587 548 7 8 133 17562 3772 7526178 23958447 15% 31 6622869 41%
c i 845.76 3587 548 7 8 133 17563 3772 7526178 23958447 15% 31 6622868 41%
c
c  seconds      switched  conflicts          irredundant      variables
c            MB  reductions    redundant               trail        remaining
c              level restarts           binary             glue
c
c i 845.76 3587 547 7 8 133 17564 3772 7526178 23958447 15% 31 6622867 41%
c i 845.76 3587 547 7 8 133 17565 3772 7526178 23958447 15% 31 6622866 41%
c i 845.76 3587 547 7 8 133 17566 3772 7526178 23958447 15% 31 6622865 41%
c i 845.76 3587 547 7 8 133 17567 3772 7526178 23958447 15% 31 6622864 41%
c i 845.76 3587 547 7 8 133 17568 3772 7526178 23958447 15% 31 6622863 41%
c i 845.76 3587 547 7 8 133 17569 3772 7526178 23958447 15% 31 6622862 41%
c i 845.76 3587 547 7 8 133 17570 3772 7526178 23958447 15% 31 6622861 41%
c i 845.76 3587 547 7 8 133 17571 3772 7526178 23958447 15% 31 6622860 41%
c i 845.76 3587 547 7 8 133 17572 3772 7526178 23958447 15% 31 6622859 41%
c i 845.76 3587 547 7 8 133 17573 3772 7526178 23958447 15% 31 6622858 41%
c i 845.76 3587 547 7 8 133 17574 3772 7526178 23958447 15% 31 6622857 41%
c i 845.76 3587 547 7 8 133 17575 3772 7526178 23958447 15% 31 6622856 41%
c i 845.76 3587 547 7 8 133 17576 3772 7526178 23958447 15% 31 6622855 41%
c i 845.76 3587 547 7 8 133 17577 3772 7526178 23958447 15% 31 6622854 41%
c i 845.76 3587 547 7 8 133 17578 3772 7526178 23958447 15% 31 6622853 41%
c i 846.00 3587 546 7 8 133 17582 3775 7526178 23958447 15% 31 6622842 41%
c - 886.10 3593 508 7 9 134 19182 3796 7526260 23958447 15% 27 6622842 41%
c i 890.41 3593 495 7 9 134 19590 3937 7526302 23958447 14% 27 6622841 41%
c i 893.65 3593 489 7 9 134 19700 4041 7526304 23958447 14% 27 6622840 41%
c i 894.06 3593 489 7 9 134 19707 4043 7526307 23958447 14% 27 6622839 41%
c
c  seconds      switched  conflicts          irredundant      variables
c            MB  reductions    redundant               trail        remaining
c              level restarts           binary             glue
c
c i 899.70 3593 485 7 9 134 19787 4115 7526312 23958447 14% 27 6622838 41%
c ] 903.85 3593 480 8 9 135 19894 4219 7526314 23958447 14% 27 6622838 41%
c { 903.85 3593 962 8 9 135 19894 4219 7526314 23958447 16% 11 6622838 41%
c i 909.96 3599 942 8 9 150 20151 4330 7526316 23958447 16% 12 6622837 41%
c i 921.01 3599 920 8 9 237 20452 4420 7526383 23958447 16% 12 6622836 41%
c i 923.94 3600 911 8 9 251 20551 4510 7526388 23958446 16% 12 6622835 41%
c i 931.77 3605 878 8 9 258 21514 4812 7526563 23958444 15% 12 6622807 41%
c i 933.54 3606 877 8 9 280 21568 4847 7526572 23958441 15% 12 6622742 41%
c i 950.22 3606 853 8 9 290 21842 5067 7526576 23958441 15% 12 6622741 41%
c i 950.22 3606 853 8 9 290 21843 5067 7526576 23958441 15% 12 6622740 41%
c i 950.22 3606 853 8 9 290 21845 5068 7526576 23958441 15% 12 6622739 41%
c i 950.22 3606 853 8 9 290 21846 5068 7526576 23958441 15% 12 6622738 41%
c - 956.85 3606 840 8 10 321 22184 4476 7526370 23958440 15% 12 6622738 41%
c i 967.79 3607 826 8 10 354 22398 4672 7526378 23958434 15% 12 6622737 41%
c i 969.65 3607 820 8 10 359 22486 4741 7526388 23958434 14% 12 6622736 41%
c i 973.96 3607 815 8 10 380 22588 4804 7526403 23958434 14% 12 6622734 41%
c i 974.90 3607 812 8 10 394 22634 4845 7526404 23958434 14% 12 6622733 41%
c i 974.91 3607 812 8 10 394 22635 4845 7526404 23958434 14% 12 6622732 41%
c i 976.41 3607 811 8 10 400 22647 4856 7526404 23958434 14% 12 6622731 41%
c i 978.58 3607 808 8 10 402 22679 4881 7526410 23958434 14% 12 6622730 41%
c
c  seconds      switched   conflicts          irredundant      variables
c            MB   reductions    redundant               trail        remaining
c              level  restarts           binary             glue
c
c i 979.47 3607 800 8 10 405 22895 4896 7526478 23958432 14% 12 6622729 41%
c i 980.83 3608 809 8 10 405 22939 4923 7526486 23958432 14% 12 6622728 41%
c d 997.20 3610 787 8 10 423 23879 5143 7549516 23888355 14% 12 6616656 41%
c d 998.51 3610 787 8 10 423 23879 5143 7514558 23888331 14% 12 6599174 41%
c b 1000.42 3610 787 8 10 423 23879 5143 7514558 23888331 14% 12 6599088 41%
c u 1011.26 3610 787 8 10 423 23879 5140 7514561 23888331 14% 12 6599088 41%
c v 1022.20 3610 787 8 10 423 23879 5130 7514571 23888331 14% 12 6599088 41%
c w 1045.68 3614 787 8 10 423 23879 5143 7526475 23864532 14% 12 6599088 41%
c d 1066.28 3598 787 8 10 423 23879 5143 7514682 23864523 14% 12 6593190 41%
c t 1070.40 3614 787 8 10 423 23879 5143 7514288 23864523 14% 12 6593189 41%
c b 1071.21 3614 787 8 10 423 23879 5143 7514288 23864523 14% 12 6593133 41%
c i 1071.36 3614 787 8 10 423 23881 5143 7514288 23864523 14% 12 6593132 41%
c i 1071.61 3614 789 8 10 423 23892 5145 7514292 23864521 14% 12 6593131 41%
c i 1072.18 3614 792 8 10 423 23904 5147 7514298 23864520 14% 12 6593102 41%
c i 1088.22 3618 767 8 10 427 25122 5604 7514424 23864518 14% 11 6593097 41%
c - 1093.70 3619 774 8 11 427 25347 5099 7513340 23864518 14% 11 6593097 41%
c } 1109.49 3620 745 9 11 463 26054 5568 7513390 23864516 14% 11 6593097 41%
c [ 1109.49 3620 480 9 11 463 26054 5568 7513390 23864516 14% 27 6593097 41%
c O 1109.53 3620 480 9 11 463 26054 5568 7513390 23864516 14% 27 6593097 41%
c i 1150.45 3620 470 9 11 463 27177 6298 7513403 23864514 14% 26 6593096 41%
c
c   seconds      switched   conflicts          irredundant      variables
c             MB   reductions    redundant               trail        remaining
c               level  restarts           binary             glue
c
c i 1150.61 3620 468 9 11 463 27208 6325 7513406 23864514 14% 26 6593095 41%
c i 1150.77 3620 468 9 11 463 27210 6326 7513406 23864514 14% 26 6593094 41%
c i 1150.88 3620 468 9 11 463 27211 6326 7513406 23864514 14% 26 6593093 41%
c i 1150.98 3620 468 9 11 463 27212 6326 7513406 23864514 14% 26 6593092 41%
c i 1151.11 3620 468 9 11 463 27218 6329 7513408 23864514 14% 26 6593091 41%
c i 1151.23 3620 467 9 11 463 27240 6344 7513414 23864514 14% 26 6593090 41%
c i 1151.23 3620 467 9 11 463 27241 6344 7513414 23864514 14% 26 6593089 41%
c i 1151.23 3620 467 9 11 463 27242 6344 7513414 23864514 14% 26 6593088 41%
c i 1151.24 3620 467 9 11 463 27243 6344 7513414 23864514 14% 26 6593087 41%
c i 1151.24 3620 467 9 11 463 27244 6344 7513414 23864514 14% 26 6593086 41%
c i 1151.24 3620 467 9 11 463 27245 6344 7513414 23864514 14% 26 6593085 41%
c i 1157.96 3620 461 9 11 463 27367 6431 7513447 23864514 14% 26 6575497 41%
c i 1158.23 3620 459 9 11 463 27409 6471 7513447 23864514 14% 25 6575496 41%
c i 1177.72 3620 453 9 11 464 27554 6609 7513448 23864514 13% 26 6575494 41%
c i 1187.26 3620 447 9 11 464 27688 6725 7513463 23864514 13% 26 6575492 41%
c i 1195.64 3620 444 9 11 464 27770 6804 7513463 23864514 13% 26 6575491 41%
c i 1195.93 3620 444 9 11 464 27774 6807 7513463 23864514 13% 26 6575490 41%
c i 1195.93 3620 443 9 11 464 27776 6808 7513463 23864514 13% 26 6575489 41%
c i 1195.93 3620 443 9 11 464 27778 6809 7513463 23864514 13% 26 6575488 41%
c i 1195.93 3620 443 9 11 464 27780 6810 7513463 23864514 13% 26 6575487 41%
c
c   seconds      switched   conflicts          irredundant      variables
c             MB   reductions    redundant               trail        remaining
c               level  restarts           binary             glue
c
c i 1195.93 3620 443 9 11 464 27781 6810 7513463 23864514 13% 26 6575486 41%
c i 1195.93 3620 443 9 11 464 27785 6811 7513464 23864514 13% 26 6575485 41%
c i 1195.93 3620 443 9 11 464 27787 6811 7513465 23864514 13% 26 6575484 41%
c i 1195.93 3620 443 9 11 464 27790 6813 7513465 23864514 13% 26 6575483 41%
c i 1195.93 3620 443 9 11 464 27791 6813 7513465 23864514 13% 26 6575482 41%
c i 1195.94 3620 443 9 11 464 27793 6813 7513466 23864514 13% 26 6575481 41%
c i 1195.94 3620 443 9 11 464 27794 6813 7513466 23864514 13% 26 6575480 41%
c i 1195.94 3620 443 9 11 464 27795 6813 7513466 23864514 13% 26 6575479 41%
c i 1195.94 3620 443 9 11 464 27796 6813 7513466 23864514 13% 26 6575478 41%
c i 1195.94 3620 443 9 11 464 27798 6813 7513467 23864514 13% 26 6575477 41%
c i 1195.94 3620 442 9 11 464 27801 6814 7513468 23864514 13% 26 6575475 41%
c i 1195.94 3620 442 9 11 464 27802 6814 7513468 23864514 13% 26 6575474 41%
c i 1195.94 3620 442 9 11 464 27803 6814 7513468 23864514 13% 26 6575473 41%
c i 1203.90 3620 435 9 11 464 27971 6955 7513489 23864514 13% 25 6575267 41%
c i 1204.27 3620 434 9 11 464 27997 6979 7513490 23864514 13% 25 6575266 41%
c i 1204.42 3620 434 9 11 464 28003 6984 7513490 23864514 13% 25 6575265 41%
c i 1204.42 3620 434 9 11 464 28004 6984 7513490 23864514 13% 25 6575264 41%
c i 1204.78 3620 434 9 11 464 28014 6991 7513492 23864514 13% 25 6574643 41%
c ] 1205.32 3622 433 9 11 464 28018 6992 7513493 23864514 13% 25 6023434 38%
c 0 1205.32 3622 745 9 11 464 28018 6992 7513493 23864514 14% 11 6023434 38%
c
c ---- [ result ] ------------------------------------------------------------
c
s UNSATISFIABLE
c
c ---- [ profiling ] ---------------------------------------------------------
c
c         947.08   78.58 %  search
c         541.57   44.93 %  focused
c         405.52   33.64 %  stable
c         236.30   19.61 %  simplify
c         221.54   18.38 %  probe
c         130.54   10.83 %  vivify
c          47.20    3.92 %  sweep
c          31.99    2.65 %  substitute
c          28.44    2.36 %  reduce
c          21.93    1.82 %  parse
c          14.76    1.22 %  walking
c          11.53    0.96 %  warmup
c           6.57    0.55 %  transitive
c           5.24    0.43 %  backbone
c =============================================
c        1205.32  100.00 %  total
c
c ---- [ statistics ] --------------------------------------------------------
c
c chronological:                         7762               28 %  conflicts
c conflicts:                            28018               23.25 per second
c decisions:                           704185               25.13 per conflict
c jumped_reasons:                   207413536                5 %  propagations
c propagations:                    3779876967          3135998    per second
c queue_decisions:                     291832               41 %  decision
c random_decisions:                    171697               24 %  decision
c random_sequences:                        17             1648    interval
c reductions:                              11             2547    interval
c rephased:                                 6             4670    interval
c restarts:                               464               60.38 interval
c score_decisions:                     240656               34 %  decision
c substituted:                        2601151               16 %  variables
c switched:                                 9             3113    interval
c vivified:                               956                4 %  checks
c vivify_checks:                        25401             8467    per vivify
c vivify_units:                             5                0 %  variables
c walk_improved:                            2              100 %  walks
c walks:                                    2            14009    interval
c
c ---- [ resources ] ---------------------------------------------------------
c
c maximum-resident-set-size:       6852288512 bytes       6535 MB
c process-time:                         20m 5s            1205.32 seconds
c
c ---- [ shutting down ] -----------------------------------------------------
c
c exit 20
